* ENCODING=ISO-8859-1
NAME          CPLEX
ROWS
 N  obj1    
 G  c1      
 G  c2      
 G  c3      
 G  c4      
 G  c5      
 G  c6      
 G  c7      
 G  c8      
 G  c9      
 G  c10     
 G  c11     
 G  c12     
 G  c13     
 G  c14     
 G  c15     
 G  c16     
 G  c17     
 G  c18     
 G  c19     
 G  c20     
 G  c21     
 G  c22     
 G  c23     
 G  c24     
 G  c25     
COLUMNS
    MARK0000  'MARKER'                 'INTORG'
    x1        obj1                            1
    x2        obj1                            1
    x2        c16                           546
    x2        c18                           165
    x3        obj1                            1
    x3        c1                            740
    x3        c4                            153
    x3        c9                            280
    x3        c18                           306
    x4        obj1                            1
    x4        c3                            893
    x4        c8                            599
    x4        c23                           876
    x4        c24                           467
    x5        obj1                            1
    x5        c5                            766
    x5        c12                           313
    x5        c14                           619
    x5        c25                           873
    x6        obj1                            1
    x7        obj1                            1
    x7        c3                            769
    x8        obj1                            1
    x8        c13                           188
    x8        c16                           499
    x8        c23                           792
    x9        obj1                            1
    x9        c12                           773
    x9        c14                           843
    x9        c16                           549
    x9        c19                           624
    x10       obj1                            1
    x10       c25                           767
    x11       obj1                            1
    x11       c12                           629
    x11       c25                           383
    x12       obj1                            1
    x12       c5                            295
    x12       c16                           340
    x13       obj1                            1
    x13       c6                            197
    x13       c12                           428
    x14       obj1                            1
    x14       c3                            597
    x14       c8                            780
    x14       c20                           126
    x15       obj1                            1
    x15       c8                            645
    x15       c17                           373
    x16       obj1                            1
    x16       c8                            768
    x16       c9                            626
    x17       obj1                            1
    x17       c9                            460
    x17       c12                           712
    x18       obj1                            1
    x18       c4                            500
    x18       c21                           689
    x18       c22                           908
    x19       obj1                            1
    x19       c10                           817
    x19       c13                           863
    x19       c19                           829
    x19       c22                           911
    x20       obj1                            1
    x20       c5                            576
    x20       c9                            459
    x21       obj1                            1
    x21       c1                            347
    x21       c10                           924
    x21       c14                           781
    x21       c18                           576
    x21       c22                           152
    x22       obj1                            1
    x22       c4                            390
    x22       c13                           459
    x23       obj1                            1
    x23       c10                           399
    x23       c14                           433
    x23       c15                           484
    x23       c16                           432
    x24       obj1                            1
    x24       c6                            203
    x24       c25                           464
    x25       obj1                            1
    x25       c7                            536
    x25       c14                           227
    x26       obj1                            1
    x27       obj1                            1
    x27       c10                           804
    x27       c15                           913
    x27       c17                           458
    x27       c22                           339
    x28       obj1                            1
    x28       c6                            461
    x28       c7                            607
    x28       c20                           764
    x28       c23                           916
    x29       obj1                            1
    x29       c1                            615
    x29       c11                           254
    x29       c15                           859
    x29       c20                           462
    x29       c25                           145
    x30       obj1                            1
    x30       c7                            453
    x31       obj1                            1
    x31       c2                            228
    x31       c11                           960
    x31       c20                           108
    x32       obj1                            1
    x32       c2                            124
    x32       c10                           532
    x32       c17                           776
    x33       obj1                            1
    x33       c13                           662
    x33       c15                           238
    x33       c19                           966
    x33       c23                           383
    x34       obj1                            1
    x34       c19                           832
    x35       obj1                            1
    x35       c2                            202
    x35       c4                            769
    x36       obj1                            1
    x36       c12                           851
    x36       c14                           509
    x36       c16                           143
    x36       c21                           586
    x37       obj1                            1
    x37       c1                            987
    x37       c11                           486
    x37       c17                           902
    x37       c21                           844
    x37       c22                           528
    x38       obj1                            1
    x38       c6                            215
    x38       c11                           139
    x38       c14                           893
    x38       c23                           333
    x39       obj1                            1
    x39       c10                           169
    x40       obj1                            1
    x40       c17                           554
    x40       c24                           730
    x41       obj1                            1
    x41       c2                            241
    x41       c6                            231
    x41       c11                           924
    x41       c21                           466
    x42       obj1                            1
    x42       c8                            692
    x42       c10                           254
    x42       c17                           999
    x42       c19                           710
    x43       obj1                            1
    x43       c5                            852
    x43       c8                            314
    x43       c12                           315
    x43       c15                           496
    x43       c19                           875
    x43       c22                          1000
    x44       obj1                            1
    x44       c5                            662
    x45       obj1                            1
    x45       c1                            329
    x46       obj1                            1
    x46       c5                            817
    x46       c6                            988
    x46       c11                           629
    x47       obj1                            1
    x47       c6                            855
    x47       c16                           926
    x47       c24                           595
    x48       obj1                            1
    x48       c8                            420
    x48       c18                           654
    x48       c19                           903
    x48       c21                           907
    x49       obj1                            1
    x49       c9                            448
    x49       c11                           332
    x49       c20                           768
    x49       c22                           620
    x50       obj1                            1
    x50       c7                            130
    x50       c17                           268
    x50       c21                           813
    x50       c23                           869
    MARK0001  'MARKER'                 'INTEND'
RHS
    rhs       c1                           1509
    rhs       c2                            398
    rhs       c3                           1130
    rhs       c4                            906
    rhs       c5                           1984
    rhs       c6                           1575
    rhs       c7                            863
    rhs       c8                           2109
    rhs       c9                           1137
    rhs       c10                          1950
    rhs       c11                          1862
    rhs       c12                          2011
    rhs       c13                          1086
    rhs       c14                          2153
    rhs       c15                          1495
    rhs       c16                          1718
    rhs       c17                          2165
    rhs       c18                           851
    rhs       c19                          2870
    rhs       c20                          1114
    rhs       c21                          2153
    rhs       c22                          2229
    rhs       c23                          2085
    rhs       c24                           896
    rhs       c25                          1316
BOUNDS
 LI bnd       x1        0
 LI bnd       x2        0
 LI bnd       x3        0
 LI bnd       x4        0
 LI bnd       x5        0
 LI bnd       x6        0
 LI bnd       x7        0
 LI bnd       x8        0
 LI bnd       x9        0
 LI bnd       x10       0
 LI bnd       x11       0
 LI bnd       x12       0
 LI bnd       x13       0
 LI bnd       x14       0
 LI bnd       x15       0
 LI bnd       x16       0
 LI bnd       x17       0
 LI bnd       x18       0
 LI bnd       x19       0
 LI bnd       x20       0
 LI bnd       x21       0
 LI bnd       x22       0
 LI bnd       x23       0
 LI bnd       x24       0
 LI bnd       x25       0
 LI bnd       x26       0
 LI bnd       x27       0
 LI bnd       x28       0
 LI bnd       x29       0
 LI bnd       x30       0
 LI bnd       x31       0
 LI bnd       x32       0
 LI bnd       x33       0
 LI bnd       x34       0
 LI bnd       x35       0
 LI bnd       x36       0
 LI bnd       x37       0
 LI bnd       x38       0
 LI bnd       x39       0
 LI bnd       x40       0
 LI bnd       x41       0
 LI bnd       x42       0
 LI bnd       x43       0
 LI bnd       x44       0
 LI bnd       x45       0
 LI bnd       x46       0
 LI bnd       x47       0
 LI bnd       x48       0
 LI bnd       x49       0
 LI bnd       x50       0
ENDATA
